8,8	0,0	16,1	16,0	0,0	0,0	0,0	0,0	0,0	11,3
15,5	5,9	0,0	16,9	9,7	0,0	0,0	17,0	0,0	0,0
0,0	0,0	11,8	0,0	16,4	9,6	0,0	0,0	13,1	0,0
18,4	0,0	19,9	0,0	0,0	0,0	11,1	0,0	0,0	0,0
0,0	12,9	0,0	6,8	15,7	0,0	0,0	6,8	0,0	0,0
0,0	5,5	7,6	0,0	17,2	8,9	0,0	0,0	19,9	0,0
0,0	11,4	0,0	13,2	0,0	0,0	6,6	0,0	0,0	14,9
9,2	0,0	9,1	0,0	0,0	0,0	0,0	0,0	0,0	7,2
0,0	5,5	0,0	8,0	5,5	0,0	0,0	13,8	0,0	0,0
0,0	0,0	6,1	0,0	0,0	10,0	7,8	0,0	0,0	10,6
									
4,7	4,9	4,3	2,8	3,9	2,9	2,6	3,4	3,6	3,2
